AES/1_5_4/ssaes_r1-20_c5_rw1_e4_f0_k1-20_aes_min_box_aes_mc_bidirectional/ExperimentMinisat_r2_k2cnf_2011-10-29-160256/Result
WARNING: for repeatability, setting FPU to use double precision
============================[ Problem Statistics ]=============================
|                                                                             |
|  Number of variables:           236                                         |
|  Number of clauses:             824                                         |
|  Parse time:                   0.00 s                                       |
|  Eliminated clauses:           0.00 Mb                                      |
|  Simplification time:          0.00 s                                       |
|                                                                             |
=============================[ Search Statistics ]==============================
| Conflicts  |          ORIGINAL         |          LEARNT          | Progress |
|            |    Vars  Clauses Literals |    Limit  Clauses Lit/Cl |          |
================================================================================
|        100 |     128      544     1784 |      199      100      8 | 20.343 % |
===============================================================================
restarts              : 2
conflicts             : 157            (52351 /sec)
decisions             : 183            (0.00 % random) (61020 /sec)
propagations          : 5577           (1859620 /sec)
conflict literals     : 1282           (24.41 % deleted)
Memory used           : 8.00 MB
CPU time              : 0.002999 s

SATISFIABLE
